(declare-const |c':61:76| Int)
(declare-const havoc Int)
(declare-const |y':59:77| Int)
(declare-const |x':60:78| Int)
(declare-const |K:74:75| Int)
(assert (and (not (= (ite (<= (+ havoc -256) 0) 1 0) 0))
               (or (not (and (<= (- |K:74:75|) 0) (<= |K:74:75| 0)))
                     (= (+ |c':61:76| (- |K:74:75|)) 0))
               (or (not (<= (+ (- |K:74:75|) 1) 0))
                     (= (+ |c':61:76| (- |K:74:75|)) 0))
               (or (not (and (<= (- |K:74:75|) 0) (<= |K:74:75| 0)))
                     (= (+ |y':59:77| (- |K:74:75|)) 0))
               (or (not (<= (+ (- |K:74:75|) 1) 0))
                     (= (+ |y':59:77| (- |K:74:75|)) 0))
               (or (not (and (<= (- |K:74:75|) 0) (<= |K:74:75| 0)))
                     (= (+ (* 12 |x':60:78|)
                             (* -2
                                  (* (* |K:74:75| (* |K:74:75| |K:74:75|))
                                       (* |K:74:75| (* |K:74:75| |K:74:75|))))
                             (* -6
                                  (* |K:74:75|
                                       (* (* |K:74:75| |K:74:75|)
                                            (* |K:74:75| |K:74:75|))))
                             (* -5
                                  (* (* |K:74:75| |K:74:75|)
                                       (* |K:74:75| |K:74:75|)))
                             (* |K:74:75| |K:74:75|)) 0))
               (or (not (and (<= (+ (- |K:74:75|) 1) 0)
                               (<= (+ |K:74:75| -1) 0)))
                     (= (+ (* 12 |x':60:78|)
                             (* -2
                                  (* (* |K:74:75| (* |K:74:75| |K:74:75|))
                                       (* |K:74:75| (* |K:74:75| |K:74:75|))))
                             (* -6
                                  (* |K:74:75|
                                       (* (* |K:74:75| |K:74:75|)
                                            (* |K:74:75| |K:74:75|))))
                             (* -5
                                  (* (* |K:74:75| |K:74:75|)
                                       (* |K:74:75| |K:74:75|)))
                             (* |K:74:75| |K:74:75|)) 0))
               (or (not (and (<= (+ (- |K:74:75|) 2) 0)
                               (<= (+ |K:74:75| -2) 0)))
                     (= (+ (* 12 |x':60:78|)
                             (* -2
                                  (* (* |K:74:75| (* |K:74:75| |K:74:75|))
                                       (* |K:74:75| (* |K:74:75| |K:74:75|))))
                             (* -6
                                  (* |K:74:75|
                                       (* (* |K:74:75| |K:74:75|)
                                            (* |K:74:75| |K:74:75|))))
                             (* -5
                                  (* (* |K:74:75| |K:74:75|)
                                       (* |K:74:75| |K:74:75|)))
                             (* |K:74:75| |K:74:75|)) 0))
               (or (not (and (<= (+ (- |K:74:75|) 3) 0)
                               (<= (+ |K:74:75| -3) 0)))
                     (= (+ (* 12 |x':60:78|)
                             (* -2
                                  (* (* |K:74:75| (* |K:74:75| |K:74:75|))
                                       (* |K:74:75| (* |K:74:75| |K:74:75|))))
                             (* -6
                                  (* |K:74:75|
                                       (* (* |K:74:75| |K:74:75|)
                                            (* |K:74:75| |K:74:75|))))
                             (* -5
                                  (* (* |K:74:75| |K:74:75|)
                                       (* |K:74:75| |K:74:75|)))
                             (* |K:74:75| |K:74:75|)) 0))
               (or (not (and (<= (+ (- |K:74:75|) 4) 0)
                               (<= (+ |K:74:75| -4) 0)))
                     (= (+ (* 12 |x':60:78|)
                             (* -2
                                  (* (* |K:74:75| (* |K:74:75| |K:74:75|))
                                       (* |K:74:75| (* |K:74:75| |K:74:75|))))
                             (* -6
                                  (* |K:74:75|
                                       (* (* |K:74:75| |K:74:75|)
                                            (* |K:74:75| |K:74:75|))))
                             (* -5
                                  (* (* |K:74:75| |K:74:75|)
                                       (* |K:74:75| |K:74:75|)))
                             (* |K:74:75| |K:74:75|)) 0))
               (or (not (and (<= (+ (- |K:74:75|) 5) 0)
                               (<= (+ |K:74:75| -5) 0)))
                     (= (+ (* 12 |x':60:78|)
                             (* -2
                                  (* (* |K:74:75| (* |K:74:75| |K:74:75|))
                                       (* |K:74:75| (* |K:74:75| |K:74:75|))))
                             (* -6
                                  (* |K:74:75|
                                       (* (* |K:74:75| |K:74:75|)
                                            (* |K:74:75| |K:74:75|))))
                             (* -5
                                  (* (* |K:74:75| |K:74:75|)
                                       (* |K:74:75| |K:74:75|)))
                             (* |K:74:75| |K:74:75|)) 0))
               (or (not (and (<= (+ (- |K:74:75|) 6) 0)
                               (<= (+ |K:74:75| -6) 0)))
                     (= (+ (* 12 |x':60:78|)
                             (* -2
                                  (* (* |K:74:75| (* |K:74:75| |K:74:75|))
                                       (* |K:74:75| (* |K:74:75| |K:74:75|))))
                             (* -6
                                  (* |K:74:75|
                                       (* (* |K:74:75| |K:74:75|)
                                            (* |K:74:75| |K:74:75|))))
                             (* -5
                                  (* (* |K:74:75| |K:74:75|)
                                       (* |K:74:75| |K:74:75|)))
                             (* |K:74:75| |K:74:75|)) 0))
               (or (not (<= (+ (- |K:74:75|) 7) 0))
                     (= (+ (* 12 |x':60:78|)
                             (* -2
                                  (* (* |K:74:75| (* |K:74:75| |K:74:75|))
                                       (* |K:74:75| (* |K:74:75| |K:74:75|))))
                             (* -6
                                  (* |K:74:75|
                                       (* (* |K:74:75| |K:74:75|)
                                            (* |K:74:75| |K:74:75|))))
                             (* -5
                                  (* (* |K:74:75| |K:74:75|)
                                       (* |K:74:75| |K:74:75|)))
                             (* |K:74:75| |K:74:75|)) 0))
               (or (not (and (<= (- |K:74:75|) 0) (<= |K:74:75| 0)))
                     (<= (+ (- |x':60:78|)
                              (* |K:74:75|
                                   (* (* |K:74:75| |K:74:75|)
                                        (* |K:74:75| |K:74:75|)))) 0))
               (or (not (and (<= (+ (- |K:74:75|) 1) 0)
                               (<= (+ |K:74:75| -1) 0)))
                     (<= (+ (- |x':60:78|)
                              (* |K:74:75|
                                   (* (* |K:74:75| |K:74:75|)
                                        (* |K:74:75| |K:74:75|)))) 0))
               (or (not (and (<= (+ (- |K:74:75|) 2) 0)
                               (<= (+ |K:74:75| -2) 0)))
                     (<= (+ (- |x':60:78|)
                              (* |K:74:75|
                                   (* (* |K:74:75| |K:74:75|)
                                        (* |K:74:75| |K:74:75|)))) 0))
               (or (not (and (<= (+ (- |K:74:75|) 3) 0)
                               (<= (+ |K:74:75| -3) 0)))
                     (<= (+ (- |x':60:78|)
                              (* |K:74:75|
                                   (* (* |K:74:75| |K:74:75|)
                                        (* |K:74:75| |K:74:75|)))) 0))
               (or (not (<= (+ (- |K:74:75|) 4) 0))
                     (<= (+ (- |x':60:78|)
                              (* |K:74:75|
                                   (* (* |K:74:75| |K:74:75|)
                                        (* |K:74:75| |K:74:75|)))) 0))
               (or (and (= |K:74:75| 0) (= (- |c':61:76|) 0)
                          (= (- |x':60:78|) 0) (= (- |y':59:77|) 0))
                     (and (<= (+ (- |K:74:75|) 1) 0) (<= (+ (- havoc) 1) 0)
                            (= (+ (- |y':59:77|) |c':61:76|) 0)
                            (= (+ (* -12 |x':60:78|)
                                    (* 2
                                         (* (* |y':59:77|
                                                 (* |y':59:77| |y':59:77|))
                                              (* |y':59:77|
                                                   (* |y':59:77| |y':59:77|))))
                                    (* 6
                                         (* |y':59:77|
                                              (* (* |y':59:77| |y':59:77|)
                                                   (* |y':59:77| |y':59:77|))))
                                    (* 5
                                         (* (* |y':59:77| |y':59:77|)
                                              (* |y':59:77| |y':59:77|)))
                                    (- (* |y':59:77| |y':59:77|))) 0)
                            (<= (+ (* -12 |x':60:78|)
                                     (* 2
                                          (* (* |y':59:77|
                                                  (* |y':59:77| |y':59:77|))
                                               (* |y':59:77|
                                                    (* |y':59:77| |y':59:77|))))
                                     (* -12
                                          (* |y':59:77|
                                               (* (* |y':59:77| |y':59:77|)
                                                    (* |y':59:77| |y':59:77|))))
                                     (* 95
                                          (* (* |y':59:77| |y':59:77|)
                                               (* |y':59:77| |y':59:77|)))
                                     (* -180
                                          (* |y':59:77|
                                               (* |y':59:77| |y':59:77|)))
                                     (* 179 (* |y':59:77| |y':59:77|))
                                     (* -90 |y':59:77|) 18) 0)
                            (<= (+ |y':59:77| (- havoc)) 0)
                            (<= (+ (- (* (* |y':59:77| |y':59:77|)
                                           (* |y':59:77| |y':59:77|)))
                                     (* 4
                                          (* |y':59:77|
                                               (* |y':59:77| |y':59:77|)))
                                     (* -6 (* |y':59:77| |y':59:77|))
                                     (* 4 |y':59:77|) -1) 0)
                            (<= (+ (- (* (* |y':59:77|
                                              (* |y':59:77| |y':59:77|))
                                           (* |y':59:77|
                                                (* |y':59:77| |y':59:77|))))
                                     (* 6
                                          (* |y':59:77|
                                               (* (* |y':59:77| |y':59:77|)
                                                    (* |y':59:77| |y':59:77|))))
                                     (* -15
                                          (* (* |y':59:77| |y':59:77|)
                                               (* |y':59:77| |y':59:77|)))
                                     (* 20
                                          (* |y':59:77|
                                               (* |y':59:77| |y':59:77|)))
                                     (* -15 (* |y':59:77| |y':59:77|))
                                     (* 6 |y':59:77|) -1) 0)
                            (<= (+ (- (* |y':59:77| (* |y':59:77| |y':59:77|)))
                                     (* 3 (* |y':59:77| |y':59:77|))
                                     (* -3 |y':59:77|) 1) 0)
                            (<= (+ (- (* (* |y':59:77|
                                              (* |y':59:77| |y':59:77|))
                                           (* |y':59:77|
                                                (* |y':59:77| |y':59:77|))))
                                     (* 6
                                          (* |y':59:77|
                                               (* (* |y':59:77| |y':59:77|)
                                                    (* |y':59:77| |y':59:77|))))
                                     (* -15
                                          (* (* |y':59:77| |y':59:77|)
                                               (* |y':59:77| |y':59:77|)))
                                     (* 20
                                          (* |y':59:77|
                                               (* |y':59:77| |y':59:77|)))
                                     (* -15 (* |y':59:77| |y':59:77|))
                                     (* 6 |y':59:77|) -1) 0)
                            (<= (+ (- (* (* |y':59:77| |y':59:77|)
                                           (* |y':59:77| |y':59:77|)))
                                     (* 4
                                          (* |y':59:77|
                                               (* |y':59:77| |y':59:77|)))
                                     (* -6 (* |y':59:77| |y':59:77|))
                                     (* 4 |y':59:77|) -1) 0)
                            (<= (+ (- (* (* |y':59:77|
                                              (* |y':59:77| |y':59:77|))
                                           (* |y':59:77|
                                                (* |y':59:77| |y':59:77|))))
                                     (* 6
                                          (* |y':59:77|
                                               (* (* |y':59:77| |y':59:77|)
                                                    (* |y':59:77| |y':59:77|))))
                                     (* -15
                                          (* (* |y':59:77| |y':59:77|)
                                               (* |y':59:77| |y':59:77|)))
                                     (* 20
                                          (* |y':59:77|
                                               (* |y':59:77| |y':59:77|)))
                                     (* -15 (* |y':59:77| |y':59:77|))
                                     (* 6 |y':59:77|) -1) 0)
                            (<= (+ (- (* (* |y':59:77| |y':59:77|)
                                           (* |y':59:77| |y':59:77|)))
                                     (* 4
                                          (* |y':59:77|
                                               (* |y':59:77| |y':59:77|)))
                                     (* -6 (* |y':59:77| |y':59:77|))
                                     (* 4 |y':59:77|) -1) 0)
                            (<= (+ (- (* (* |y':59:77|
                                              (* |y':59:77| |y':59:77|))
                                           (* |y':59:77|
                                                (* |y':59:77| |y':59:77|))))
                                     (* 6
                                          (* |y':59:77|
                                               (* (* |y':59:77| |y':59:77|)
                                                    (* |y':59:77| |y':59:77|))))
                                     (* -15
                                          (* (* |y':59:77| |y':59:77|)
                                               (* |y':59:77| |y':59:77|)))
                                     (* 20
                                          (* |y':59:77|
                                               (* |y':59:77| |y':59:77|)))
                                     (* -15 (* |y':59:77| |y':59:77|))
                                     (* 6 |y':59:77|) -1) 0)
                            (<= (+ (- (* |y':59:77| (* |y':59:77| |y':59:77|)))
                                     (* 3 (* |y':59:77| |y':59:77|))
                                     (* -3 |y':59:77|) 1) 0)
                            (<= (+ (- (* |y':59:77| |y':59:77|))
                                     (* 2 |y':59:77|) -1) 0)
                            (<= (+ (- |y':59:77|) 1) 0)))
               (<= (- |K:74:75|) 0) (<= (- |c':61:76|) 0)
               (<= (- |y':59:77|) 0) (= (+ (- |y':59:77|) |c':61:76|) 0)
               (= (+ (* 12 |x':60:78|)
                       (* -2
                            (* (* |y':59:77| (* |y':59:77| |y':59:77|))
                                 (* |y':59:77| (* |y':59:77| |y':59:77|))))
                       (* -6
                            (* |y':59:77|
                                 (* (* |y':59:77| |y':59:77|)
                                      (* |y':59:77| |y':59:77|))))
                       (* -5
                            (* (* |y':59:77| |y':59:77|)
                                 (* |y':59:77| |y':59:77|)))
                       (* |y':59:77| |y':59:77|)) 0)
               (<= (+ (- |c':61:76|) havoc) 0)
               (not (= (+ (* 12 |x':60:78|)
                            (* -2
                                 (* (* |y':59:77| (* |y':59:77| |y':59:77|))
                                      (* |y':59:77| (* |y':59:77| |y':59:77|))))
                            (* -6
                                 (* |y':59:77|
                                      (* (* |y':59:77| |y':59:77|)
                                           (* |y':59:77| |y':59:77|))))
                            (* -5
                                 (* (* |y':59:77| |y':59:77|)
                                      (* |y':59:77| |y':59:77|)))
                            (* |y':59:77| |y':59:77|)) 0))))
(check-sat)
